185	32	4	74	
10	10	10	10

0	0	0	0	0	0	10	1	7	10	11	25	26	27	28	29	30
1	0	1	1	1	9	4	24	23	22	2
2	0	4	2	7	6	4	19	18	17	3
3	0	2	5	3	1	2	15	4
4	1	9	0	3	9	1	5
5	4	0	5	6	8	3	14	13	6
6	4	6	5	0	9	1	8
7	6	1	0	4	10	2	21	16
8	0	3	2	7	10	1	9
9	3	7	3	0	7	1	12
10	0	4	3	1	10	1	20
11	3	4	4	0	9	1	16
12	1	5	0	2	2	1	31
13	3	0	6	5	7	1	31
14	8	0	5	3	5	1	31
15	0	5	4	6	2	1	31
16	3	1	0	7	5	1	31
17	3	4	5	0	9	1	31
18	0	6	4	5	1	1	31
19	5	0	5	1	6	1	31
20	4	5	4	0	5	1	31
21	6	0	3	8	10	1	31
22	8	3	1	0	2	1	31
23	4	0	5	4	6	1	31
24	3	4	6	0	7	1	31
25	3	0	3	3	2	1	31
26	4	0	8	2	9	1	31
27	5	2	0	3	4	1	31
28	0	4	3	2	8	1	31
29	3	6	3	0	1	1	31
30	0	2	5	5	6	1	31
31	0	0	0	0	0	0
